
Gurobi 12.0.2 (win64) logging started Mon Sep 15 14:20:53 2025

Set parameter LogFile to value "C:\Ioana\_uni\honours\slp\algorithm\Main_files\results\paracetamol with updated samples\Task_005_Sample004_irr_gurobi.log"
Gurobi Optimizer version 12.0.2 build v12.0.2rc0 (win64 - Windows 11.0 (26100.2))

CPU model: Intel(R) Core(TM) Ultra 5 125H, instruction set [SSE2|AVX|AVX2]
Thread count: 14 physical cores, 18 logical processors, using up to 18 threads

Non-default parameters:
TimeLimit  2200

Optimize a model with 47236 rows, 34517 columns and 146727 nonzeros
Model fingerprint: 0x7938fce5
Variable types: 17268 continuous, 17249 integer (17249 binary)
Coefficient statistics:
  Matrix range     [1e-04, 8e+04]
  Objective range  [1e-04, 9e-01]
  Bounds range     [1e+00, 1e+03]
  RHS range        [1e+00, 1e+00]
Presolve removed 30819 rows and 21544 columns
Presolve time: 0.36s
Presolved: 16417 rows, 12973 columns, 54716 nonzeros
Variable types: 6425 continuous, 6548 integer (6548 binary)
Found heuristic solution: objective 8.2372671

Root relaxation: objective 9.274993e-01, 3346 iterations, 0.27 seconds (0.64 work units)

    Nodes    |    Current Node    |     Objective Bounds      |     Work
 Expl Unexpl |  Obj  Depth IntInf | Incumbent    BestBd   Gap | It/Node Time

     0     0    0.92750    0    2    8.23727    0.92750  88.7%     -    0s
H    0     0                       1.8070289    0.92750  48.7%     -    0s
H    0     0                       0.9587877    0.92750  3.26%     -    0s
     0     0    0.92750    0    2    0.95879    0.92750  3.26%     -    0s

Explored 1 nodes (3346 simplex iterations) in 0.75 seconds (1.12 work units)
Thread count was 18 (of 18 available processors)

Solution count 3: 0.958788 1.80703 8.23727 

Optimal solution found (tolerance 1.00e-04)
Best objective 9.587877030420e-01, best bound 9.587877030420e-01, gap 0.0000%
